11
0 1200 1120 1286 528 445 875 909 798 686 198
1200 0 242 114 781 799 548 344 478 601 1051
1120 242 0 235 638 779 661 213 541 453 1002
1286 114 235 0 841 898 661 398 588 657 1145
528 781 638 841 0 416 706 444 559 186 486
445 799 779 898 416 0 432 574 358 453 263
875 548 661 661 706 432 0 537 160 618 684
909 344 213 398 444 574 537 0 390 260 790
798 478 541 588 559 358 160 390 0 460 621
686 601 453 657 186 453 618 260 460 0 604
198 1051 1002 1145 486 263 684 790 621 604 0
